data/solutions/recovery/wellformed/intermediate/binding/wellformed_intermediate_instance84/72.sol
Elapsed time: 0.16
Upper bound: 213964.0
Planning weighted value: 12880534120.0
C[0]=213964.0
C[1]=213252.0
C[2]=209310.0
C[3]=207568.0
C[4]=207542.0
C[5]=174024.0
C[6]=167456.0
C[7]=148266.0
C[8]=131999.0
C[9]=130504.0
C[10]=121844.0
C[11]=120777.0
C[12]=75337.0
C[13]=73075.0
C[14]=0.0
C[15]=0.0
y[0]=7
y[1]=7
y[2]=13
y[3]=6
y[4]=12
y[5]=8
y[6]=8
y[7]=7
y[8]=3
y[9]=2
y[10]=6
y[11]=11
y[12]=5
y[13]=0
y[14]=0
y[15]=6
y[16]=1
y[17]=0
y[18]=10
y[19]=3
y[20]=6
y[21]=1
y[22]=2
y[23]=2
y[24]=3
y[25]=9
y[26]=8
y[27]=4
y[28]=9
y[29]=1
y[30]=9
y[31]=2
y[32]=1
y[33]=12
y[34]=5
y[35]=6
y[36]=0
y[37]=9
y[38]=10
y[39]=5
y[40]=1
y[41]=4
y[42]=0
y[43]=7
y[44]=1
y[45]=4
y[46]=3
y[47]=0
y[48]=1
y[49]=2
y[50]=12
y[51]=12
y[52]=6
y[53]=5
y[54]=0
y[55]=1
y[56]=13
y[57]=9
y[58]=1
y[59]=6
y[60]=1
y[61]=7
y[62]=12
y[63]=8
y[64]=4
y[65]=7
y[66]=5
y[67]=2
y[68]=8
y[69]=2
y[70]=3
y[71]=1
y[72]=3
y[73]=1
y[74]=3
y[75]=13
y[76]=6
y[77]=9
y[78]=1
y[79]=5
y[80]=5
y[81]=7
y[82]=1
y[83]=8
y[84]=4
y[85]=11
y[86]=0
y[87]=6
y[88]=2
y[89]=11
y[90]=11
y[91]=3
y[92]=13
y[93]=7
y[94]=5
y[95]=0
y[96]=13
y[97]=4
y[98]=6
y[99]=3
y[100]=10
y[101]=10
y[102]=2
y[103]=4
y[104]=11
y[105]=0
y[106]=6
y[107]=10
y[108]=0
y[109]=11
y[110]=5
y[111]=3
y[112]=11
y[113]=4
y[114]=2
y[115]=8
y[116]=13
y[117]=3
y[118]=9
y[119]=6
y[120]=4
y[121]=7
y[122]=10
y[123]=12
y[124]=3
y[125]=3
y[126]=2
y[127]=6
y[128]=4
y[129]=5
y[130]=5
y[131]=5
y[132]=7
y[133]=13
y[134]=10
y[135]=2
y[136]=0
y[137]=10
y[138]=7
y[139]=11
y[140]=11
y[141]=2
y[142]=3
y[143]=11
y[144]=8
y[145]=4
y[146]=10
y[147]=4
y[148]=13
y[149]=10
y[150]=0
y[151]=6
y[152]=4
y[153]=3
y[154]=3
y[155]=4
y[156]=2
y[157]=11
y[158]=11
y[159]=13
y[160]=2
y[161]=0
y[162]=12
y[163]=7
y[164]=12
y[165]=4
y[166]=2
y[167]=7
y[168]=11
y[169]=7
y[170]=9
y[171]=2
y[172]=4
y[173]=2
y[174]=11
y[175]=10
y[176]=9
y[177]=9
y[178]=0
y[179]=10
y[180]=3
y[181]=12
y[182]=12
y[183]=9
y[184]=12
y[185]=4
y[186]=8
y[187]=4
y[188]=1
y[189]=9
y[190]=5
y[191]=6
y[192]=7
y[193]=9
y[194]=2
y[195]=5
y[196]=12
y[197]=1
y[198]=6
y[199]=2
y[200]=1
y[201]=9
y[202]=8
y[203]=8
y[204]=7
y[205]=13
y[206]=11
y[207]=7
y[208]=3
y[209]=1
y[210]=4
y[211]=4
y[212]=8
y[213]=7
