data/solutions/recovery/wellformed/intermediate/binding/wellformed_intermediate_instance84/72.log

Log started (V12.6.3.0) Fri Apr 20 21:53:34 2018

New value for default parallel thread count: 1

Problem '/tmp/tmp3hCx6G.pyomo.lp' read.
Read time = 0.08 sec. (7.58 ticks)

Problem name         : /tmp/tmp3hCx6G.pyomo.lp
Objective sense      : Minimize
Variables            :    3442  [Nneg: 1,  Binary: 3424,  General Integer: 17]
Objective nonzeros   :       1
Linear constraints   :     463  [Less: 230,  Equal: 233]
  Nonzeros           :  559317
  RHS nonzeros       :     215

Variables            : Min LB: 0.000000         Max UB: 1.000000       
Objective nonzeros   : Min   : 1.000000         Max   : 1.000000       
Linear constraints   :
  Nonzeros           : Min   : 1.000000         Max   : 19973.00       
  RHS nonzeros       : Min   : 1.000000         Max   : 1.000000       
Tried aggregator 2 times.
MIP Presolve eliminated 394 rows and 2853 columns.
Aggregator did 14 substitutions.
Reduced MIP has 55 rows, 575 columns, and 1162 nonzeros.
Reduced MIP has 574 binaries, 1 generals, 0 SOSs, and 0 indicators.
Presolve time = 0.02 sec. (35.68 ticks)
Found incumbent of value 663072.000000 after 0.04 sec. (48.87 ticks)
Probing time = 0.00 sec. (0.69 ticks)
Tried aggregator 1 time.
Reduced MIP has 55 rows, 575 columns, and 1162 nonzeros.
Reduced MIP has 574 binaries, 1 generals, 0 SOSs, and 0 indicators.
Presolve time = 0.00 sec. (0.90 ticks)
Probing time = 0.00 sec. (0.69 ticks)
Clique table members: 41.
MIP emphasis: balance optimality and feasibility.
MIP search method: dynamic search.
Parallel mode: none, using 1 thread.
Root relaxation solution time = 0.00 sec. (0.94 ticks)

        Nodes                                         Cuts/
   Node  Left     Objective  IInf  Best Integer    Best Bound    ItCnt     Gap

*     0+    0                       663072.0000   213964.0000            67.73%
      0     0   213964.0000     8   663072.0000   213964.0000       85   67.73%
*     0+    0                       213964.0000   213964.0000             0.00%
      0     0        cutoff         213964.0000   213964.0000       85    0.00%
Elapsed time = 0.04 sec. (53.00 ticks, tree = 0.01 MB, solutions = 2)

Root node processing (before b&c):
  Real time             =    0.05 sec. (53.12 ticks)
Sequential b&c:
  Real time             =    0.00 sec. (0.00 ticks)
                          ------------
Total (root+branch&cut) =    0.05 sec. (53.12 ticks)

Solution pool: 2 solutions saved.

MIP - Integer optimal solution:  Objective =  2.1396400000e+05
Solution time =    0.05 sec.  Iterations = 85  Nodes = 0
Deterministic time = 53.13 ticks  (1177.05 ticks/sec)


Incumbent solution written to file '/tmp/tmppGJdqe.cplex.sol'.
